# Objective value = 3.0251845216823983e+02
x[0] 0
x[1] 1
x[2] 1
x[3] 1
x[4] 1
x[5] 1
x[6] 0
x[7] 1
x[8] 1
x[9] 1
x[10] 1
x[11] 1
x[12] 0
x[13] 0
x[14] 1.00000025615725
x[15] 0
x[16] 1
x[17] 1
x[18] 1
x[19] 1
x[20] 0
x[21] 0
x[22] 0
x[23] 0
x[24] 0
x[25] 1
x[26] 1
x[27] 0
x[28] 1
x[29] 0
x[30] 0
x[31] 1
x[32] 1
x[33] 0
x[34] 0
x[35] 1
x[36] 1
x[37] 1
x[38] 1
x[39] 1
x[40] 0
x[41] 0
x[42] 0
x[43] 1
x[44] 1
x[45] 0
x[46] 1
x[47] 0
x[48] 1
x[49] 0
x[50] 0
x[51] 1
x[52] 0
x[53] 0
x[54] 0
x[55] 1
x[56] 1
x[57] 1
x[58] 1
x[59] 0
x[60] 0
x[61] 1
x[62] 0
x[63] 1
x[64] 1
x[65] 0
x[66] 1
x[67] 0
x[68] 1
x[69] 0
x[70] 1
x[71] 0
x[72] 1
x[73] 0
x[74] 0
x[75] 1
x[76] 1
x[77] 1
x[78] 0
x[79] 1
x[80] 0
x[81] 1
x[82] 0
x[83] 0
x[84] 0
x[85] 0
x[86] 1
x[87] 0
x[88] 0
x[89] 0
x[90] 1
x[91] 1
x[92] 1
x[93] 1
x[94] 1
x[95] 1
x[96] 0
x[97] 1
x[98] 1
x[99] 1
x[100] 0
x[101] 0
x[102] 1
x[103] 1
x[104] 0
x[105] 0
x[106] 0
x[107] 1
x[108] 0
x[109] 0
x[110] 0
x[111] 0
x[112] 0
x[113] 1
x[114] 1
x[115] 0
x[116] 0
x[117] 1
x[118] 1
x[119] 1
x[120] 1
x[121] 0
x[122] 1
x[123] 0
x[124] 0
x[125] 1
x[126] 1
x[127] 1
x[128] 1
x[129] 0
x[130] 1
x[131] 0
x[132] 1
x[133] 1
x[134] 0
x[135] 1
x[136] 0
x[137] 1
x[138] 1
x[139] 0
x[140] 0
x[141] 0
x[142] 0
x[143] 1
x[144] 0
x[145] 0
x[146] 0
x[147] 0
x[148] 0
x[149] 0
x[150] 1
x[151] 0
x[152] 0
x[153] 0
x[154] 1
x[155] 1
x[156] 1
x[157] 1
x[158] 1
x[159] 0
x[160] 1
x[161] 0
x[162] 0
x[163] 1
x[164] 1
x[165] 0
x[166] 1
x[167] 1
x[168] 0
x[169] 0
x[170] 1
x[171] 0
x[172] 0
x[173] 0
x[174] 1
x[175] 0
x[176] 0
x[177] 1
x[178] 0
x[179] 1
x[180] 1
x[181] 0
x[182] 0
x[183] 0
x[184] 0
x[185] 0
x[186] 0
x[187] 0
x[188] 1
x[189] 0
x[190] 0
x[191] 1
x[192] 0
x[193] 0
x[194] 0
x[195] 0
x[196] 1
x[197] 1
x[198] 0
x[199] 1
x[200] 0
x[201] 1
x[202] 1
x[203] 0
x[204] 1
x[205] 1
x[206] 0
x[207] 1
x[208] 0
x[209] 0
x[210] 0
x[211] 0
x[212] 0
x[213] 0
x[214] 0
x[215] 1
x[216] 0
x[217] 1
x[218] 0
x[219] 1
x[220] 0
x[221] 1
x[222] 0
x[223] 0
x[224] 1
x[225] 1
x[226] 0
x[227] 0
x[228] 1
x[229] 0
x[230] 1
x[231] 1
x[232] 1
x[233] 0
x[234] 0
x[235] 1
x[236] 1
x[237] 0
x[238] 1
x[239] 0
x[240] 0
x[241] 0
x[242] 1
x[243] 1
x[244] 1
x[245] 0
x[246] 1
x[247] 1
x[248] 1
x[249] 1
x[250] 1
x[251] 0
x[252] 1
x[253] 1
x[254] 0
x[255] 1
x[256] 1
x[257] 0
x[258] 0
x[259] 0
x[260] 1
x[261] 1
x[262] 0
x[263] 0
x[264] 1
x[265] 1
x[266] 0
x[267] 0
x[268] 0
x[269] 0
x[270] 0
x[271] 1
x[272] 1
x[273] 1
x[274] 0
x[275] 0
x[276] 1
x[277] 0
x[278] 0
x[279] 1
x[280] 1
x[281] 0
x[282] 0
x[283] 1
x[284] 0
x[285] 1
x[286] 1
x[287] 0
x[288] 0
x[289] 0
x[290] 1
x[291] 1
x[292] 1
x[293] 0
x[294] 1
x[295] 0
x[296] 1
x[297] 0
x[298] 0
x[299] 0
x[300] 0
x[301] 0
x[302] 0
x[303] 0
x[304] 1
x[305] 0
x[306] 0
x[307] 1
x[308] 0
x[309] 0
x[310] 0
x[311] 1
x[312] 1
x[313] 0
x[314] 1
x[315] 0
x[316] 0
x[317] 0
x[318] 0
x[319] 1
x[320] 0
x[321] 0
x[322] 0
x[323] 0
x[324] 0
x[325] 1
x[326] 0
x[327] 0
x[328] 0
x[329] 0
x[330] 1
x[331] 0
x[332] 1
x[333] 1
x[334] 1
x[335] 0
x[336] 1
x[337] 1
x[338] 0
x[339] 1
x[340] 0
x[341] 1
x[342] 0
x[343] 0
x[344] 0
x[345] 1
x[346] 1
x[347] 0
x[348] 1
x[349] 0
x[350] 1
x[351] 1
x[352] 0
x[353] 0
x[354] 0
x[355] 1
x[356] 1
x[357] 1
x[358] 0
x[359] 0
x[360] 0
x[361] 1
x[362] 0
x[363] 1
x[364] 0
x[365] 1
x[366] 0
x[367] 0
x[368] 1
x[369] 0
x[370] 1
x[371] 1
x[372] 0
x[373] 0
x[374] 1
x[375] 0
x[376] 1
x[377] 0
x[378] 0
x[379] 1
x[380] 0
x[381] 1
x[382] 0
x[383] 0
x[384] 1
x[385] 1
x[386] 1
x[387] 0
x[388] 0
x[389] 0
x[390] 0
x[391] 0
x[392] 0
x[393] 0
x[394] 1
x[395] 1
x[396] 0
x[397] 0
x[398] 0
x[399] 1
x[400] 1
x[401] 0
x[402] 1
x[403] 1
x[404] 0
x[405] 1
x[406] 0
x[407] 1
x[408] 0
x[409] 1
x[410] 1
x[411] 1
x[412] 0
x[413] 1
x[414] 0
x[415] 0
x[416] 1
x[417] 1
x[418] 1
x[419] 0
x[420] 1
x[421] 0
x[422] 0
x[423] 1
x[424] 1
x[425] 1
x[426] 0
x[427] 0
x[428] 1
x[429] 1
x[430] 1
x[431] 1
x[432] 1
x[433] 0
x[434] 1
x[435] 1
x[436] 1
x[437] 1
x[438] 0
x[439] 0
x[440] 0
x[441] 1
x[442] 0
x[443] 0
x[444] 1
x[445] 0
x[446] 0
x[447] 1
x[448] 1
x[449] 0
x[450] 0
x[451] 0
x[452] 1
x[453] 1
x[454] 0
x[455] 1
x[456] 0
x[457] 1
x[458] 0
x[459] 1
x[460] 0
x[461] 1
x[462] 1
x[463] 0
x[464] 1
x[465] 0
x[466] 0
x[467] 0
x[468] 1
x[469] 0
x[470] 1
x[471] 0
x[472] 1
x[473] 0
x[474] 1
x[475] 1
x[476] 0
x[477] 0
x[478] 0
x[479] 1
x[480] 0
x[481] 1
x[482] 0
x[483] 0
x[484] 0
x[485] 1
x[486] 0
x[487] 0
x[488] 1
x[489] 0
x[490] 0
x[491] 1
x[492] 0
x[493] 0
x[494] 1
x[495] 0
x[496] 0
x[497] 0
x[498] 1
x[499] 0
x[500] 0
x[501] 0
x[502] 1
x[503] 0
x[504] 0
x[505] 0
x[506] 1
x[507] 1
x[508] 1
x[509] 0
x[510] 0
x[511] 1
x[512] 0
x[513] 0
x[514] 0
x[515] 0
x[516] 1
x[517] 1
x[518] 1
x[519] 0
x[520] 1
x[521] 0
x[522] 1
x[523] 0
x[524] 1
x[525] 0
x[526] 1
x[527] 1
x[528] 1
x[529] 1
x[530] 1
x[531] 1
x[532] 0
x[533] 0
x[534] 1
x[535] 0
x[536] 1
x[537] 1
x[538] 0
x[539] 1
x[540] 1
x[541] 0
x[542] 1
x[543] 0
x[544] 0
x[545] 1
x[546] 0
x[547] 1
x[548] 1
x[549] 0
x[550] 0
x[551] 1
x[552] 1
x[553] 1
x[554] 0
x[555] 1
x[556] 0
x[557] 0
x[558] 0
x[559] 1
x[560] 1
x[561] 1
x[562] 0
x[563] 1
x[564] 0
x[565] 1
x[566] 1
x[567] 1
x[568] 1
x[569] 0
x[570] 1
x[571] 1
x[572] 1
x[573] 1
x[574] 0
x[575] 0
x[576] 1
x[577] 0
x[578] 0
x[579] 0
x[580] 1
x[581] 0
x[582] 1
x[583] 0
x[584] 0
x[585] 1
x[586] 0
x[587] 0
x[588] 1
x[589] 1
x[590] 1
x[591] 1
x[592] 1
x[593] 0
x[594] 0
x[595] 1
x[596] 0
x[597] 1
x[598] 1
x[599] 0
x[600] 0
x[601] 0
x[602] 1
x[603] 1
x[604] 1
x[605] 1
x[606] 1
x[607] 0
x[608] 0
x[609] 0
x[610] 1
x[611] 0
x[612] 1
x[613] 0
x[614] 1
x[615] 0
x[616] 0
x[617] 1
x[618] 1
x[619] 0
x[620] 1
x[621] 0
x[622] 0
x[623] 1
x[624] 1
x[625] 1
x[626] 1
x[627] 0
x[628] 1
x[629] 0
x[630] 0
x[631] 1
x[632] 0
x[633] 1
x[634] 0
x[635] 0
x[636] 1
x[637] 1
x[638] 1
x[639] 0
x[640] 1
x[641] 1
x[642] 0
x[643] 0
x[644] 0
x[645] 1
x[646] 0
x[647] 1
x[648] 1
x[649] 1
x[650] 0
x[651] 1
x[652] 1
x[653] 1
x[654] 1
x[655] 0
x[656] 0
x[657] 1
x[658] 1
x[659] 0
x[660] 1
x[661] 0
x[662] 1
x[663] 0
x[664] 0
x[665] 1
x[666] 1
x[667] 1
x[668] 0
x[669] 1
x[670] 1
x[671] 1
x[672] 1
x[673] 0
x[674] 0
x[675] 1
x[676] 0
x[677] 0
x[678] 1
x[679] 0
x[680] 0
x[681] 1
x[682] 0
x[683] 0
x[684] 1
x[685] 1
x[686] 0
x[687] 0
x[688] 0
x[689] 0
x[690] 0
x[691] 1
x[692] 1
x[693] 0
x[694] 1
x[695] 0
x[696] 1
x[697] 0
x[698] 1
x[699] 1
x[700] 0
x[701] 0
x[702] 0
x[703] 0
x[704] 1
x[705] 0
x[706] 1
x[707] 0
x[708] 1
x[709] 1
x[710] 1
x[711] 1
x[712] 1
x[713] 0
x[714] 0
x[715] 1
x[716] 1
x[717] 0
x[718] 1
x[719] 1
x[720] 0
x[721] 1
x[722] 0
x[723] 1
x[724] 1
x[725] 1
x[726] 1
x[727] 1
x[728] 1
x[729] 0
x[730] 0
x[731] 1
x[732] 0
x[733] 0
x[734] 1
x[735] 0
x[736] 0
x[737] 1
x[738] 0
x[739] 0
x[740] 1
x[741] 0
x[742] 1
x[743] 0
x[744] 1
x[745] 0
x[746] 0
x[747] 0
x[748] 1
x[749] 0
x[750] 1
x[751] 1
x[752] 0
x[753] 1
x[754] 1
x[755] 1
x[756] 0
x[757] 0
x[758] 1
x[759] 1
x[760] 0
x[761] 0
x[762] 1
x[763] 0
x[764] 1
x[765] 0
x[766] 0
x[767] 0
x[768] 1
x[769] 0
x[770] 1
x[771] 1
x[772] 0
x[773] 1
x[774] 0
x[775] 0
x[776] 1
x[777] 1
x[778] 1
x[779] 1
x[780] 0
x[781] 0
x[782] 0
x[783] 0
x[784] 0
x[785] 0
x[786] 1
x[787] 0
x[788] 0
x[789] 1
x[790] 1
x[791] 0
x[792] 0
x[793] 1
x[794] 0
x[795] 0
x[796] 1
x[797] 1
x[798] 0
x[799] 0
x[800] 1
x[801] 0
x[802] 0
x[803] 1
x[804] 0
x[805] 0
x[806] 1
x[807] 1
x[808] 0
x[809] 1
x[810] 1
x[811] 1
x[812] 0
x[813] 0
x[814] 1
x[815] 1
x[816] 0
x[817] 0
x[818] 0
x[819] 0
x[820] 0
x[821] 0
x[822] 0
x[823] 1
x[824] 1
x[825] 0
x[826] 0
x[827] 1
x[828] 0
x[829] 0
x[830] 0
x[831] 1
x[832] 1
x[833] 1
x[834] 0
x[835] 0
x[836] 0
x[837] 1
x[838] 1
x[839] 0
x[840] 1
x[841] 1
x[842] 0
x[843] 1
x[844] 0
x[845] 1
x[846] 1
x[847] 0
x[848] 0
x[849] 0
x[850] 0
x[851] 0
x[852] 1
x[853] 1
x[854] 1
x[855] 1
x[856] 0
x[857] 0
x[858] 1
x[859] 0
x[860] 1
x[861] 1
x[862] 1
x[863] 1
x[864] 1
x[865] 1
x[866] 0
x[867] 0
x[868] 1
x[869] 0
x[870] 1
x[871] 1
x[872] 1
x[873] 0
x[874] 1
x[875] 1
x[876] 1
x[877] 0
x[878] 0
x[879] 1
x[880] 0
x[881] 0
x[882] 0
x[883] 0
x[884] 0
x[885] 1
x[886] 0
x[887] 1
x[888] 0
x[889] 0
x[890] 0
x[891] 0
x[892] 1
x[893] 0
x[894] 0
x[895] 0
x[896] 0
x[897] 1
x[898] 0
x[899] 1
x[900] 0
x[901] 1
x[902] 0
x[903] 1
x[904] 0
x[905] 1
x[906] 0
x[907] 0
x[908] 0
x[909] 1
x[910] 0
x[911] 1
x[912] 0
x[913] 1
x[914] 0
x[915] 1
x[916] 1
x[917] 1
x[918] 0
x[919] 1
x[920] 1
x[921] 0
x[922] 1
x[923] 0
x[924] 0
x[925] 0
x[926] 1
x[927] 0
x[928] 1
x[929] 0
x[930] 1
x[931] 0
x[932] 1
x[933] 0
x[934] 1
x[935] 0
x[936] 0
x[937] 1
x[938] 1
x[939] 0
x[940] 0
x[941] 0
x[942] 1
x[943] 1
x[944] 0
x[945] 0
x[946] 0
x[947] 0
x[948] 0
x[949] 0
x[950] 1
x[951] 0
x[952] 1
x[953] 1
x[954] 0
x[955] 0
x[956] 0
x[957] 0
x[958] 1
x[959] 1
x[960] 1
x[961] 0
x[962] 0
x[963] 1
x[964] 1
x[965] 0
x[966] 0
x[967] 0
x[968] 0
x[969] 1
x[970] 1
x[971] 1
x[972] 0
x[973] 0
x[974] 0
x[975] 1
x[976] 1
x[977] 0
x[978] 1
x[979] 0
x[980] 0
x[981] 0
x[982] 0
x[983] 0
x[984] 0
x[985] 1
x[986] 1
x[987] 0
x[988] 0
x[989] 1
x[990] 0
x[991] 0
x[992] 1
x[993] 0
x[994] 0
x[995] 0
x[996] 0
x[997] 0
x[998] 0
x[999] 1
